c 
c MolecularSimulation 0.9.3
c Simulation written: Jan 13 2012 -- 15:17:57
c Test: Distribution
c Input: ./data/testCNF/SWEEP_R4_K3_N20_M64_S002.cnf
c 
s SATISFIABLE
v 1 2 3 -4 -5 6 7 8 -9 10 -11 -12 13 14 -15 -16 -17 -18 -19 0
c algorithmTime:  904
c solutionMemory: 1043
c mixCount:       189
c extractCount:   0
c appendCount:    16796668
c splitCount:     189
c spliceCount:    7895643
c purifyCount:    63
c 
